c description: Tseitin formula on Random 6-regular graph of 20 vertices, with odd charge
c generator: CNFgen (0.9.2)
c copyright: (C) 2012-2022 Massimo Lauria <massimo.lauria@uniroma1.it>
c url: https://massimolauria.net/cnfgen
c command line: cnfgen tseitin 20 6
c
p cnf 60 640
1 2 3 4 5 -6 0
1 2 3 4 -5 6 0
1 2 3 -4 5 6 0
1 2 3 -4 -5 -6 0
1 2 -3 4 5 6 0
1 2 -3 4 -5 -6 0
1 2 -3 -4 5 -6 0
1 2 -3 -4 -5 6 0
1 -2 3 4 5 6 0
1 -2 3 4 -5 -6 0
1 -2 3 -4 5 -6 0
1 -2 3 -4 -5 6 0
1 -2 -3 4 5 -6 0
1 -2 -3 4 -5 6 0
1 -2 -3 -4 5 6 0
1 -2 -3 -4 -5 -6 0
-1 2 3 4 5 6 0
-1 2 3 4 -5 -6 0
-1 2 3 -4 5 -6 0
-1 2 3 -4 -5 6 0
-1 2 -3 4 5 -6 0
-1 2 -3 4 -5 6 0
-1 2 -3 -4 5 6 0
-1 2 -3 -4 -5 -6 0
-1 -2 3 4 5 -6 0
-1 -2 3 4 -5 6 0
-1 -2 3 -4 5 6 0
-1 -2 3 -4 -5 -6 0
-1 -2 -3 4 5 6 0
-1 -2 -3 4 -5 -6 0
-1 -2 -3 -4 5 -6 0
-1 -2 -3 -4 -5 6 0
7 8 9 10 11 -12 0
7 8 9 10 -11 12 0
7 8 9 -10 11 12 0
7 8 9 -10 -11 -12 0
7 8 -9 10 11 12 0
7 8 -9 10 -11 -12 0
7 8 -9 -10 11 -12 0
7 8 -9 -10 -11 12 0
7 -8 9 10 11 12 0
7 -8 9 10 -11 -12 0
7 -8 9 -10 11 -12 0
7 -8 9 -10 -11 12 0
7 -8 -9 10 11 -12 0
7 -8 -9 10 -11 12 0
7 -8 -9 -10 11 12 0
7 -8 -9 -10 -11 -12 0
-7 8 9 10 11 12 0
-7 8 9 10 -11 -12 0
-7 8 9 -10 11 -12 0
-7 8 9 -10 -11 12 0
-7 8 -9 10 11 -12 0
-7 8 -9 10 -11 12 0
-7 8 -9 -10 11 12 0
-7 8 -9 -10 -11 -12 0
-7 -8 9 10 11 -12 0
-7 -8 9 10 -11 12 0
-7 -8 9 -10 11 12 0
-7 -8 9 -10 -11 -12 0
-7 -8 -9 10 11 12 0
-7 -8 -9 10 -11 -12 0
-7 -8 -9 -10 11 -12 0
-7 -8 -9 -10 -11 12 0
7 13 14 15 16 17 0
7 13 14 15 -16 -17 0
7 13 14 -15 16 -17 0
7 13 14 -15 -16 17 0
7 13 -14 15 16 -17 0
7 13 -14 15 -16 17 0
7 13 -14 -15 16 17 0
7 13 -14 -15 -16 -17 0
7 -13 14 15 16 -17 0
7 -13 14 15 -16 17 0
7 -13 14 -15 16 17 0
7 -13 14 -15 -16 -17 0
7 -13 -14 15 16 17 0
7 -13 -14 15 -16 -17 0
7 -13 -14 -15 16 -17 0
7 -13 -14 -15 -16 17 0
-7 13 14 15 16 -17 0
-7 13 14 15 -16 17 0
-7 13 14 -15 16 17 0
-7 13 14 -15 -16 -17 0
-7 13 -14 15 16 17 0
-7 13 -14 15 -16 -17 0
-7 13 -14 -15 16 -17 0
-7 13 -14 -15 -16 17 0
-7 -13 14 15 16 17 0
-7 -13 14 15 -16 -17 0
-7 -13 14 -15 16 -17 0
-7 -13 14 -15 -16 17 0
-7 -13 -14 15 16 -17 0
-7 -13 -14 15 -16 17 0
-7 -13 -14 -15 16 17 0
-7 -13 -14 -15 -16 -17 0
1 13 18 19 20 -21 0
1 13 18 19 -20 21 0
1 13 18 -19 20 21 0
1 13 18 -19 -20 -21 0
1 13 -18 19 20 21 0
1 13 -18 19 -20 -21 0
1 13 -18 -19 20 -21 0
1 13 -18 -19 -20 21 0
1 -13 18 19 20 21 0
1 -13 18 19 -20 -21 0
1 -13 18 -19 20 -21 0
1 -13 18 -19 -20 21 0
1 -13 -18 19 20 -21 0
1 -13 -18 19 -20 21 0
1 -13 -18 -19 20 21 0
1 -13 -18 -19 -20 -21 0
-1 13 18 19 20 21 0
-1 13 18 19 -20 -21 0
-1 13 18 -19 20 -21 0
-1 13 18 -19 -20 21 0
-1 13 -18 19 20 -21 0
-1 13 -18 19 -20 21 0
-1 13 -18 -19 20 21 0
-1 13 -18 -19 -20 -21 0
-1 -13 18 19 20 -21 0
-1 -13 18 19 -20 21 0
-1 -13 18 -19 20 21 0
-1 -13 18 -19 -20 -21 0
-1 -13 -18 19 20 21 0
-1 -13 -18 19 -20 -21 0
-1 -13 -18 -19 20 -21 0
-1 -13 -18 -19 -20 21 0
8 22 23 24 25 -26 0
8 22 23 24 -25 26 0
8 22 23 -24 25 26 0
8 22 23 -24 -25 -26 0
8 22 -23 24 25 26 0
8 22 -23 24 -25 -26 0
8 22 -23 -24 25 -26 0
8 22 -23 -24 -25 26 0
8 -22 23 24 25 26 0
8 -22 23 24 -25 -26 0
8 -22 23 -24 25 -26 0
8 -22 23 -24 -25 26 0
8 -22 -23 24 25 -26 0
8 -22 -23 24 -25 26 0
8 -22 -23 -24 25 26 0
8 -22 -23 -24 -25 -26 0
-8 22 23 24 25 26 0
-8 22 23 24 -25 -26 0
-8 22 23 -24 25 -26 0
-8 22 23 -24 -25 26 0
-8 22 -23 24 25 -26 0
-8 22 -23 24 -25 26 0
-8 22 -23 -24 25 26 0
-8 22 -23 -24 -25 -26 0
-8 -22 23 24 25 -26 0
-8 -22 23 24 -25 26 0
-8 -22 23 -24 25 26 0
-8 -22 23 -24 -25 -26 0
-8 -22 -23 24 25 26 0
-8 -22 -23 24 -25 -26 0
-8 -22 -23 -24 25 -26 0
-8 -22 -23 -24 -25 26 0
9 18 27 28 29 -30 0
9 18 27 28 -29 30 0
9 18 27 -28 29 30 0
9 18 27 -28 -29 -30 0
9 18 -27 28 29 30 0
9 18 -27 28 -29 -30 0
9 18 -27 -28 29 -30 0
9 18 -27 -28 -29 30 0
9 -18 27 28 29 30 0
9 -18 27 28 -29 -30 0
9 -18 27 -28 29 -30 0
9 -18 27 -28 -29 30 0
9 -18 -27 28 29 -30 0
9 -18 -27 28 -29 30 0
9 -18 -27 -28 29 30 0
9 -18 -27 -28 -29 -30 0
-9 18 27 28 29 30 0
-9 18 27 28 -29 -30 0
-9 18 27 -28 29 -30 0
-9 18 27 -28 -29 30 0
-9 18 -27 28 29 -30 0
-9 18 -27 28 -29 30 0
-9 18 -27 -28 29 30 0
-9 18 -27 -28 -29 -30 0
-9 -18 27 28 29 -30 0
-9 -18 27 28 -29 30 0
-9 -18 27 -28 29 30 0
-9 -18 27 -28 -29 -30 0
-9 -18 -27 28 29 30 0
-9 -18 -27 28 -29 -30 0
-9 -18 -27 -28 29 -30 0
-9 -18 -27 -28 -29 30 0
10 19 22 31 32 33 0
10 19 22 31 -32 -33 0
10 19 22 -31 32 -33 0
10 19 22 -31 -32 33 0
10 19 -22 31 32 -33 0
10 19 -22 31 -32 33 0
10 19 -22 -31 32 33 0
10 19 -22 -31 -32 -33 0
10 -19 22 31 32 -33 0
10 -19 22 31 -32 33 0
10 -19 22 -31 32 33 0
10 -19 22 -31 -32 -33 0
10 -19 -22 31 32 33 0
10 -19 -22 31 -32 -33 0
10 -19 -22 -31 32 -33 0
10 -19 -22 -31 -32 33 0
-10 19 22 31 32 -33 0
-10 19 22 31 -32 33 0
-10 19 22 -31 32 33 0
-10 19 22 -31 -32 -33 0
-10 19 -22 31 32 33 0
-10 19 -22 31 -32 -33 0
-10 19 -22 -31 32 -33 0
-10 19 -22 -31 -32 33 0
-10 -19 22 31 32 33 0
-10 -19 22 31 -32 -33 0
-10 -19 22 -31 32 -33 0
-10 -19 22 -31 -32 33 0
-10 -19 -22 31 32 -33 0
-10 -19 -22 31 -32 33 0
-10 -19 -22 -31 32 33 0
-10 -19 -22 -31 -32 -33 0
34 35 36 37 38 39 0
34 35 36 37 -38 -39 0
34 35 36 -37 38 -39 0
34 35 36 -37 -38 39 0
34 35 -36 37 38 -39 0
34 35 -36 37 -38 39 0
34 35 -36 -37 38 39 0
34 35 -36 -37 -38 -39 0
34 -35 36 37 38 -39 0
34 -35 36 37 -38 39 0
34 -35 36 -37 38 39 0
34 -35 36 -37 -38 -39 0
34 -35 -36 37 38 39 0
34 -35 -36 37 -38 -39 0
34 -35 -36 -37 38 -39 0
34 -35 -36 -37 -38 39 0
-34 35 36 37 38 -39 0
-34 35 36 37 -38 39 0
-34 35 36 -37 38 39 0
-34 35 36 -37 -38 -39 0
-34 35 -36 37 38 39 0
-34 35 -36 37 -38 -39 0
-34 35 -36 -37 38 -39 0
-34 35 -36 -37 -38 39 0
-34 -35 36 37 38 39 0
-34 -35 36 37 -38 -39 0
-34 -35 36 -37 38 -39 0
-34 -35 36 -37 -38 39 0
-34 -35 -36 37 38 -39 0
-34 -35 -36 37 -38 39 0
-34 -35 -36 -37 38 39 0
-34 -35 -36 -37 -38 -39 0
11 23 34 40 41 42 0
11 23 34 40 -41 -42 0
11 23 34 -40 41 -42 0
11 23 34 -40 -41 42 0
11 23 -34 40 41 -42 0
11 23 -34 40 -41 42 0
11 23 -34 -40 41 42 0
11 23 -34 -40 -41 -42 0
11 -23 34 40 41 -42 0
11 -23 34 40 -41 42 0
11 -23 34 -40 41 42 0
11 -23 34 -40 -41 -42 0
11 -23 -34 40 41 42 0
11 -23 -34 40 -41 -42 0
11 -23 -34 -40 41 -42 0
11 -23 -34 -40 -41 42 0
-11 23 34 40 41 -42 0
-11 23 34 40 -41 42 0
-11 23 34 -40 41 42 0
-11 23 34 -40 -41 -42 0
-11 23 -34 40 41 42 0
-11 23 -34 40 -41 -42 0
-11 23 -34 -40 41 -42 0
-11 23 -34 -40 -41 42 0
-11 -23 34 40 41 42 0
-11 -23 34 40 -41 -42 0
-11 -23 34 -40 41 -42 0
-11 -23 34 -40 -41 42 0
-11 -23 -34 40 41 -42 0
-11 -23 -34 40 -41 42 0
-11 -23 -34 -40 41 42 0
-11 -23 -34 -40 -41 -42 0
2 14 24 43 44 45 0
2 14 24 43 -44 -45 0
2 14 24 -43 44 -45 0
2 14 24 -43 -44 45 0
2 14 -24 43 44 -45 0
2 14 -24 43 -44 45 0
2 14 -24 -43 44 45 0
2 14 -24 -43 -44 -45 0
2 -14 24 43 44 -45 0
2 -14 24 43 -44 45 0
2 -14 24 -43 44 45 0
2 -14 24 -43 -44 -45 0
2 -14 -24 43 44 45 0
2 -14 -24 43 -44 -45 0
2 -14 -24 -43 44 -45 0
2 -14 -24 -43 -44 45 0
-2 14 24 43 44 -45 0
-2 14 24 43 -44 45 0
-2 14 24 -43 44 45 0
-2 14 24 -43 -44 -45 0
-2 14 -24 43 44 45 0
-2 14 -24 43 -44 -45 0
-2 14 -24 -43 44 -45 0
-2 14 -24 -43 -44 45 0
-2 -14 24 43 44 45 0
-2 -14 24 43 -44 -45 0
-2 -14 24 -43 44 -45 0
-2 -14 24 -43 -44 45 0
-2 -14 -24 43 44 -45 0
-2 -14 -24 43 -44 45 0
-2 -14 -24 -43 44 45 0
-2 -14 -24 -43 -44 -45 0
12 27 43 46 47 48 0
12 27 43 46 -47 -48 0
12 27 43 -46 47 -48 0
12 27 43 -46 -47 48 0
12 27 -43 46 47 -48 0
12 27 -43 46 -47 48 0
12 27 -43 -46 47 48 0
12 27 -43 -46 -47 -48 0
12 -27 43 46 47 -48 0
12 -27 43 46 -47 48 0
12 -27 43 -46 47 48 0
12 -27 43 -46 -47 -48 0
12 -27 -43 46 47 48 0
12 -27 -43 46 -47 -48 0
12 -27 -43 -46 47 -48 0
12 -27 -43 -46 -47 48 0
-12 27 43 46 47 -48 0
-12 27 43 46 -47 48 0
-12 27 43 -46 47 48 0
-12 27 43 -46 -47 -48 0
-12 27 -43 46 47 48 0
-12 27 -43 46 -47 -48 0
-12 27 -43 -46 47 -48 0
-12 27 -43 -46 -47 48 0
-12 -27 43 46 47 48 0
-12 -27 43 46 -47 -48 0
-12 -27 43 -46 47 -48 0
-12 -27 43 -46 -47 48 0
-12 -27 -43 46 47 -48 0
-12 -27 -43 46 -47 48 0
-12 -27 -43 -46 47 48 0
-12 -27 -43 -46 -47 -48 0
28 40 49 50 51 52 0
28 40 49 50 -51 -52 0
28 40 49 -50 51 -52 0
28 40 49 -50 -51 52 0
28 40 -49 50 51 -52 0
28 40 -49 50 -51 52 0
28 40 -49 -50 51 52 0
28 40 -49 -50 -51 -52 0
28 -40 49 50 51 -52 0
28 -40 49 50 -51 52 0
28 -40 49 -50 51 52 0
28 -40 49 -50 -51 -52 0
28 -40 -49 50 51 52 0
28 -40 -49 50 -51 -52 0
28 -40 -49 -50 51 -52 0
28 -40 -49 -50 -51 52 0
-28 40 49 50 51 -52 0
-28 40 49 50 -51 52 0
-28 40 49 -50 51 52 0
-28 40 49 -50 -51 -52 0
-28 40 -49 50 51 52 0
-28 40 -49 50 -51 -52 0
-28 40 -49 -50 51 -52 0
-28 40 -49 -50 -51 52 0
-28 -40 49 50 51 52 0
-28 -40 49 50 -51 -52 0
-28 -40 49 -50 51 -52 0
-28 -40 49 -50 -51 52 0
-28 -40 -49 50 51 -52 0
-28 -40 -49 50 -51 52 0
-28 -40 -49 -50 51 52 0
-28 -40 -49 -50 -51 -52 0
3 29 35 53 54 -55 0
3 29 35 53 -54 55 0
3 29 35 -53 54 55 0
3 29 35 -53 -54 -55 0
3 29 -35 53 54 55 0
3 29 -35 53 -54 -55 0
3 29 -35 -53 54 -55 0
3 29 -35 -53 -54 55 0
3 -29 35 53 54 55 0
3 -29 35 53 -54 -55 0
3 -29 35 -53 54 -55 0
3 -29 35 -53 -54 55 0
3 -29 -35 53 54 -55 0
3 -29 -35 53 -54 55 0
3 -29 -35 -53 54 55 0
3 -29 -35 -53 -54 -55 0
-3 29 35 53 54 55 0
-3 29 35 53 -54 -55 0
-3 29 35 -53 54 -55 0
-3 29 35 -53 -54 55 0
-3 29 -35 53 54 -55 0
-3 29 -35 53 -54 55 0
-3 29 -35 -53 54 55 0
-3 29 -35 -53 -54 -55 0
-3 -29 35 53 54 -55 0
-3 -29 35 53 -54 55 0
-3 -29 35 -53 54 55 0
-3 -29 35 -53 -54 -55 0
-3 -29 -35 53 54 55 0
-3 -29 -35 53 -54 -55 0
-3 -29 -35 -53 54 -55 0
-3 -29 -35 -53 -54 55 0
4 15 49 56 57 -58 0
4 15 49 56 -57 58 0
4 15 49 -56 57 58 0
4 15 49 -56 -57 -58 0
4 15 -49 56 57 58 0
4 15 -49 56 -57 -58 0
4 15 -49 -56 57 -58 0
4 15 -49 -56 -57 58 0
4 -15 49 56 57 58 0
4 -15 49 56 -57 -58 0
4 -15 49 -56 57 -58 0
4 -15 49 -56 -57 58 0
4 -15 -49 56 57 -58 0
4 -15 -49 56 -57 58 0
4 -15 -49 -56 57 58 0
4 -15 -49 -56 -57 -58 0
-4 15 49 56 57 58 0
-4 15 49 56 -57 -58 0
-4 15 49 -56 57 -58 0
-4 15 49 -56 -57 58 0
-4 15 -49 56 57 -58 0
-4 15 -49 56 -57 58 0
-4 15 -49 -56 57 58 0
-4 15 -49 -56 -57 -58 0
-4 -15 49 56 57 -58 0
-4 -15 49 56 -57 58 0
-4 -15 49 -56 57 58 0
-4 -15 49 -56 -57 -58 0
-4 -15 -49 56 57 58 0
-4 -15 -49 56 -57 -58 0
-4 -15 -49 -56 57 -58 0
-4 -15 -49 -56 -57 58 0
25 30 31 36 50 -59 0
25 30 31 36 -50 59 0
25 30 31 -36 50 59 0
25 30 31 -36 -50 -59 0
25 30 -31 36 50 59 0
25 30 -31 36 -50 -59 0
25 30 -31 -36 50 -59 0
25 30 -31 -36 -50 59 0
25 -30 31 36 50 59 0
25 -30 31 36 -50 -59 0
25 -30 31 -36 50 -59 0
25 -30 31 -36 -50 59 0
25 -30 -31 36 50 -59 0
25 -30 -31 36 -50 59 0
25 -30 -31 -36 50 59 0
25 -30 -31 -36 -50 -59 0
-25 30 31 36 50 59 0
-25 30 31 36 -50 -59 0
-25 30 31 -36 50 -59 0
-25 30 31 -36 -50 59 0
-25 30 -31 36 50 -59 0
-25 30 -31 36 -50 59 0
-25 30 -31 -36 50 59 0
-25 30 -31 -36 -50 -59 0
-25 -30 31 36 50 -59 0
-25 -30 31 36 -50 59 0
-25 -30 31 -36 50 59 0
-25 -30 31 -36 -50 -59 0
-25 -30 -31 36 50 59 0
-25 -30 -31 36 -50 -59 0
-25 -30 -31 -36 50 -59 0
-25 -30 -31 -36 -50 59 0
5 16 32 41 46 60 0
5 16 32 41 -46 -60 0
5 16 32 -41 46 -60 0
5 16 32 -41 -46 60 0
5 16 -32 41 46 -60 0
5 16 -32 41 -46 60 0
5 16 -32 -41 46 60 0
5 16 -32 -41 -46 -60 0
5 -16 32 41 46 -60 0
5 -16 32 41 -46 60 0
5 -16 32 -41 46 60 0
5 -16 32 -41 -46 -60 0
5 -16 -32 41 46 60 0
5 -16 -32 41 -46 -60 0
5 -16 -32 -41 46 -60 0
5 -16 -32 -41 -46 60 0
-5 16 32 41 46 -60 0
-5 16 32 41 -46 60 0
-5 16 32 -41 46 60 0
-5 16 32 -41 -46 -60 0
-5 16 -32 41 46 60 0
-5 16 -32 41 -46 -60 0
-5 16 -32 -41 46 -60 0
-5 16 -32 -41 -46 60 0
-5 -16 32 41 46 60 0
-5 -16 32 41 -46 -60 0
-5 -16 32 -41 46 -60 0
-5 -16 32 -41 -46 60 0
-5 -16 -32 41 46 -60 0
-5 -16 -32 41 -46 60 0
-5 -16 -32 -41 46 60 0
-5 -16 -32 -41 -46 -60 0
6 26 37 44 53 -59 0
6 26 37 44 -53 59 0
6 26 37 -44 53 59 0
6 26 37 -44 -53 -59 0
6 26 -37 44 53 59 0
6 26 -37 44 -53 -59 0
6 26 -37 -44 53 -59 0
6 26 -37 -44 -53 59 0
6 -26 37 44 53 59 0
6 -26 37 44 -53 -59 0
6 -26 37 -44 53 -59 0
6 -26 37 -44 -53 59 0
6 -26 -37 44 53 -59 0
6 -26 -37 44 -53 59 0
6 -26 -37 -44 53 59 0
6 -26 -37 -44 -53 -59 0
-6 26 37 44 53 59 0
-6 26 37 44 -53 -59 0
-6 26 37 -44 53 -59 0
-6 26 37 -44 -53 59 0
-6 26 -37 44 53 -59 0
-6 26 -37 44 -53 59 0
-6 26 -37 -44 53 59 0
-6 26 -37 -44 -53 -59 0
-6 -26 37 44 53 -59 0
-6 -26 37 44 -53 59 0
-6 -26 37 -44 53 59 0
-6 -26 37 -44 -53 -59 0
-6 -26 -37 44 53 59 0
-6 -26 -37 44 -53 -59 0
-6 -26 -37 -44 53 -59 0
-6 -26 -37 -44 -53 59 0
20 33 47 51 54 -56 0
20 33 47 51 -54 56 0
20 33 47 -51 54 56 0
20 33 47 -51 -54 -56 0
20 33 -47 51 54 56 0
20 33 -47 51 -54 -56 0
20 33 -47 -51 54 -56 0
20 33 -47 -51 -54 56 0
20 -33 47 51 54 56 0
20 -33 47 51 -54 -56 0
20 -33 47 -51 54 -56 0
20 -33 47 -51 -54 56 0
20 -33 -47 51 54 -56 0
20 -33 -47 51 -54 56 0
20 -33 -47 -51 54 56 0
20 -33 -47 -51 -54 -56 0
-20 33 47 51 54 56 0
-20 33 47 51 -54 -56 0
-20 33 47 -51 54 -56 0
-20 33 47 -51 -54 56 0
-20 33 -47 51 54 -56 0
-20 33 -47 51 -54 56 0
-20 33 -47 -51 54 56 0
-20 33 -47 -51 -54 -56 0
-20 -33 47 51 54 -56 0
-20 -33 47 51 -54 56 0
-20 -33 47 -51 54 56 0
-20 -33 47 -51 -54 -56 0
-20 -33 -47 51 54 56 0
-20 -33 -47 51 -54 -56 0
-20 -33 -47 -51 54 -56 0
-20 -33 -47 -51 -54 56 0
17 38 52 55 57 -60 0
17 38 52 55 -57 60 0
17 38 52 -55 57 60 0
17 38 52 -55 -57 -60 0
17 38 -52 55 57 60 0
17 38 -52 55 -57 -60 0
17 38 -52 -55 57 -60 0
17 38 -52 -55 -57 60 0
17 -38 52 55 57 60 0
17 -38 52 55 -57 -60 0
17 -38 52 -55 57 -60 0
17 -38 52 -55 -57 60 0
17 -38 -52 55 57 -60 0
17 -38 -52 55 -57 60 0
17 -38 -52 -55 57 60 0
17 -38 -52 -55 -57 -60 0
-17 38 52 55 57 60 0
-17 38 52 55 -57 -60 0
-17 38 52 -55 57 -60 0
-17 38 52 -55 -57 60 0
-17 38 -52 55 57 -60 0
-17 38 -52 55 -57 60 0
-17 38 -52 -55 57 60 0
-17 38 -52 -55 -57 -60 0
-17 -38 52 55 57 -60 0
-17 -38 52 55 -57 60 0
-17 -38 52 -55 57 60 0
-17 -38 52 -55 -57 -60 0
-17 -38 -52 55 57 60 0
-17 -38 -52 55 -57 -60 0
-17 -38 -52 -55 57 -60 0
-17 -38 -52 -55 -57 60 0
21 39 42 45 48 58 0
21 39 42 45 -48 -58 0
21 39 42 -45 48 -58 0
21 39 42 -45 -48 58 0
21 39 -42 45 48 -58 0
21 39 -42 45 -48 58 0
21 39 -42 -45 48 58 0
21 39 -42 -45 -48 -58 0
21 -39 42 45 48 -58 0
21 -39 42 45 -48 58 0
21 -39 42 -45 48 58 0
21 -39 42 -45 -48 -58 0
21 -39 -42 45 48 58 0
21 -39 -42 45 -48 -58 0
21 -39 -42 -45 48 -58 0
21 -39 -42 -45 -48 58 0
-21 39 42 45 48 -58 0
-21 39 42 45 -48 58 0
-21 39 42 -45 48 58 0
-21 39 42 -45 -48 -58 0
-21 39 -42 45 48 58 0
-21 39 -42 45 -48 -58 0
-21 39 -42 -45 48 -58 0
-21 39 -42 -45 -48 58 0
-21 -39 42 45 48 58 0
-21 -39 42 45 -48 -58 0
-21 -39 42 -45 48 -58 0
-21 -39 42 -45 -48 58 0
-21 -39 -42 45 48 -58 0
-21 -39 -42 45 -48 58 0
-21 -39 -42 -45 48 58 0
-21 -39 -42 -45 -48 -58 0
